# Objective value = 1.9406836709565973e+03
x[0] 1
x[1] 1
x[2] 1
x[3] 0
x[4] 1
x[5] 1
x[6] 0
x[7] 1
x[8] 1
x[9] 1
x[10] 0
x[11] 1
x[12] 1
x[13] 0
x[14] 1
x[15] 0
x[16] 1
x[17] 0
x[18] 1
x[19] 0
x[20] 1
x[21] 1
x[22] 1
x[23] 0
x[24] 1
x[25] 0
x[26] 1
x[27] 0
x[28] 1
x[29] 1
x[30] 1
x[31] 1
x[32] 0
x[33] 1
x[34] 0
x[35] 1
x[36] 1
x[37] 1
x[38] 1
x[39] 1
x[40] 0
x[41] 0
x[42] 0
x[43] 0
x[44] 0
x[45] 0
x[46] 1
x[47] 0
x[48] 0
x[49] 1
x[50] 1
x[51] 1
x[52] 1
x[53] 1
x[54] 1
x[55] 0
x[56] 1
x[57] 0
x[58] 1
x[59] 1
x[60] 1
x[61] 0
x[62] 0
x[63] 1
x[64] 1
x[65] 0
x[66] 1
x[67] 1
x[68] 0
x[69] 0
x[70] 0
x[71] 0
x[72] 0
x[73] 0
x[74] 1
x[75] 1
x[76] 1
x[77] 0
x[78] 1
x[79] 0
x[80] 0
x[81] 1
x[82] 0
x[83] 0
x[84] 0
x[85] 0
x[86] 1
x[87] 1
x[88] 1
x[89] 1
x[90] 1
x[91] 1
x[92] 1
x[93] 0
x[94] 0
x[95] 0
x[96] 1
x[97] 0
x[98] 0
x[99] 1
x[100] 0
x[101] 0
x[102] 1
x[103] 0
x[104] 1
x[105] 1
x[106] 0
x[107] 1
x[108] 1
x[109] 1
x[110] 1
x[111] 0
x[112] 0
x[113] 1
x[114] 0
x[115] 0
x[116] 0
x[117] 1
x[118] 1
x[119] 1
x[120] 1
x[121] 1
x[122] 0
x[123] 1
x[124] 0
x[125] 1
x[126] 1
x[127] 1
x[128] 1
x[129] 1
x[130] 0
x[131] 1
x[132] 0
x[133] 0
x[134] 0
x[135] 1
x[136] 1
x[137] 1
x[138] 1
x[139] 0
x[140] 0
x[141] 1
x[142] 1
x[143] 0
x[144] 0
x[145] 1
x[146] 0
x[147] 0
x[148] 1
x[149] 0
x[150] 1
x[151] 1
x[152] 0
x[153] 0
x[154] 1
x[155] 0
x[156] 1
x[157] 1
x[158] 0
x[159] 0
x[160] 0
x[161] 0
x[162] 1
x[163] 0
x[164] 1
x[165] 0
x[166] 0
x[167] 0
x[168] 1
x[169] 1
x[170] 1
x[171] 0
x[172] 1
x[173] 1
x[174] 0
x[175] 1
x[176] 1
x[177] 1
x[178] 1
x[179] 1
x[180] 0
x[181] 1
x[182] 0
x[183] 0
x[184] 0
x[185] 1
x[186] 1
x[187] 0
x[188] 1
x[189] 0
x[190] 1
x[191] 0
x[192] 0
x[193] 0
x[194] 0
x[195] 1
x[196] 0
x[197] 0
x[198] 1
x[199] 1
x[200] 1
x[201] 0
x[202] 0
x[203] 0
x[204] 0
x[205] 1
x[206] 1
x[207] 1
x[208] 0
x[209] 0
x[210] 0
x[211] 0
x[212] 1
x[213] 0
x[214] 1
x[215] 1
x[216] 1
x[217] 1
x[218] 0
x[219] 0
x[220] 1
x[221] 0
x[222] 1
x[223] 1
x[224] 0
x[225] 1
x[226] 0
x[227] 0
x[228] 0
x[229] 1
x[230] 0
x[231] 1
x[232] 1
x[233] 0
x[234] 1
x[235] 1
x[236] 1
x[237] 1
x[238] 1
x[239] 0
x[240] 0
x[241] 0
x[242] 1
x[243] 0
x[244] 0
x[245] 1
x[246] 0
x[247] 1
x[248] 0
x[249] 1
x[250] 1
x[251] 1
x[252] 1
x[253] 0
x[254] 0
x[255] 0
x[256] 1
x[257] 1
x[258] 0
x[259] 0
x[260] 1
x[261] 0
x[262] 1
x[263] 1
x[264] 1
x[265] 1
x[266] 0
x[267] 1
x[268] 1
x[269] 1
x[270] 1
x[271] 1
x[272] 1
x[273] 1
x[274] 0
x[275] 1
x[276] 0
x[277] 1
x[278] 0
x[279] 1
x[280] 1
x[281] 1
x[282] 1
x[283] 1
x[284] 1
x[285] 1
x[286] 0
x[287] 0
x[288] 0
x[289] 1
x[290] 1
x[291] 0
x[292] 0
x[293] 1
x[294] 0
x[295] 1
x[296] 1
x[297] 0
x[298] 1
x[299] 1
x[300] 0
x[301] 0
x[302] 0
x[303] 0
x[304] 1
x[305] 0
x[306] 1
x[307] 1
x[308] 1
x[309] 0
x[310] 1
x[311] 1
x[312] 0
x[313] 1
x[314] 0
x[315] 1
x[316] 1
x[317] 0
x[318] 0
x[319] 0
x[320] 1
x[321] 1
x[322] 1
x[323] 1
x[324] 0
x[325] 0
x[326] 0
x[327] 0
x[328] 1
x[329] 1
x[330] 0
x[331] 1
x[332] 0
x[333] 1
x[334] 0
x[335] 0
x[336] 1
x[337] 1
x[338] 0
x[339] 0
x[340] 1
x[341] 1
x[342] 1
x[343] 0
x[344] 1
x[345] 1
x[346] 1
x[347] 0
x[348] 1
x[349] 1
x[350] 1
x[351] 1
x[352] 1
x[353] 1
x[354] 0
x[355] 0
x[356] 1
x[357] 0
x[358] 1
x[359] 1
x[360] 0
x[361] 1
x[362] 0
x[363] 0
x[364] 1
x[365] 1
x[366] 1
x[367] 1
x[368] 1
x[369] 1
x[370] 1
x[371] 0
x[372] 1
x[373] 1
x[374] 1
x[375] 1
x[376] 1
x[377] 1
x[378] 0
x[379] 1
x[380] 1
x[381] 1
x[382] 1
x[383] 0
x[384] 1
x[385] 1
x[386] 0
x[387] 1
x[388] 1
x[389] 1
x[390] 1
x[391] 0
x[392] 1
x[393] 1
x[394] 1
x[395] 0
x[396] 1
x[397] 1
x[398] 0
x[399] 1
x[400] 1
x[401] 1
x[402] 0
x[403] 0
x[404] 1
x[405] 1
x[406] 0
x[407] 0
x[408] 0
x[409] 0
x[410] 1
x[411] 1
x[412] 0
x[413] 1
x[414] 1
x[415] 0
x[416] 1
x[417] 0
x[418] 1
x[419] 1
x[420] 0
x[421] 0
x[422] 0
x[423] 0
x[424] 0
x[425] 0
x[426] 1
x[427] 1
x[428] 1
x[429] 1
x[430] 0
x[431] 0
x[432] 0
x[433] 1
x[434] 1
x[435] 0
x[436] 1
x[437] 1
x[438] 0
x[439] 1
x[440] 1
x[441] 0
x[442] 1
x[443] 0
x[444] 0
x[445] 1
x[446] 1
x[447] 1
x[448] 0
x[449] 0
x[450] 1
x[451] 0
x[452] 0
x[453] 0
x[454] 1
x[455] 1
x[456] 1
x[457] 1
x[458] 1
x[459] 1
x[460] 1
x[461] 0
x[462] 0
x[463] 0
x[464] 1
x[465] 0
x[466] 0
x[467] 0
x[468] 0
x[469] 1
x[470] 0
x[471] 1
x[472] 0
x[473] 0
x[474] 1
x[475] 1
x[476] 1
x[477] 0
x[478] 0
x[479] 0
x[480] 0
x[481] 0
x[482] 0
x[483] 0
x[484] 0
x[485] 1
x[486] 1
x[487] 0
x[488] 0
x[489] 0
x[490] 0
x[491] 1
x[492] 0
x[493] 1
x[494] 0
x[495] 0
x[496] 1
x[497] 1
x[498] 1
x[499] 0
x[500] 0
x[501] 0
x[502] 1
x[503] 0
x[504] 0
x[505] 0
x[506] 0
x[507] 0
x[508] 0
x[509] 0
x[510] 0
x[511] 1
x[512] 1
x[513] 1
x[514] 1
x[515] 1
x[516] 1
x[517] 1
x[518] 1
x[519] 1
x[520] 1
x[521] 1
x[522] 1
x[523] 0
x[524] 1
x[525] 0
x[526] 1
x[527] 0
x[528] 1
x[529] 1
x[530] 1
x[531] 1
x[532] 1
x[533] 1
x[534] 1
x[535] 0
x[536] 1
x[537] 1
x[538] 1
x[539] 0
x[540] 1
x[541] 1
x[542] 0
x[543] 0
x[544] 1
x[545] 1
x[546] 0
x[547] 0
x[548] 1
x[549] 1
x[550] 1
x[551] 1
x[552] 1
x[553] 0
x[554] 1
x[555] 1
x[556] 0
x[557] 1
x[558] 0
x[559] 1
x[560] 0
x[561] 0
x[562] 0
x[563] 0
x[564] 1
x[565] 0
x[566] 1
x[567] 1
x[568] 1
x[569] 0
x[570] 0
x[571] 1
x[572] 0
x[573] 1
x[574] 1
x[575] 0
x[576] 0
x[577] 0
x[578] 1
x[579] 1
x[580] 0
x[581] 0
x[582] 1
x[583] 1
x[584] 1
x[585] 1
x[586] 0
x[587] 0
x[588] 0
x[589] 1
x[590] 1
x[591] 1
x[592] 0
x[593] 1
x[594] 1
x[595] 1
x[596] 1
x[597] 1
x[598] 1
x[599] 1
x[600] 1
x[601] 1
x[602] 1
x[603] 1
x[604] 1
x[605] 0
x[606] 1
x[607] 1
x[608] 0
x[609] 1
x[610] 1
x[611] 1
x[612] 0
x[613] 1
x[614] 1
x[615] 1
x[616] 1
x[617] 0
x[618] 0
x[619] 0
x[620] 1
x[621] 0
x[622] 1
x[623] 1
x[624] 0
x[625] 1
x[626] 1
x[627] 1
x[628] 1
x[629] 0
x[630] 1
x[631] 1
x[632] 1
x[633] 1
x[634] 1
x[635] 1
x[636] 0
x[637] 0
x[638] 1
x[639] 0
x[640] 0
x[641] 1
x[642] 1
x[643] 0
x[644] 1
x[645] 1
x[646] 1
x[647] 1
x[648] 0
x[649] 0
x[650] 1
x[651] 1
x[652] 0
x[653] 0
x[654] 1
x[655] 1
x[656] 1
x[657] 0
x[658] 1
x[659] 1
x[660] 0
x[661] 0
x[662] 1
x[663] 0
x[664] 0
x[665] 1
x[666] 0
x[667] 1
x[668] 1
x[669] 0
x[670] 1
x[671] 1
x[672] 0
x[673] 0
x[674] 1
x[675] 0
x[676] 0
x[677] 0
x[678] 0
x[679] 1
x[680] 1
x[681] 1
x[682] 1
x[683] 0
x[684] 1
x[685] 1
x[686] 1
x[687] 1
x[688] 0
x[689] 0
x[690] 1
x[691] 0
x[692] 1
x[693] 1
x[694] 1
x[695] 0
x[696] 1
x[697] 0
x[698] 1
x[699] 1
x[700] 1
x[701] 1
x[702] 0
x[703] 1
x[704] 0
x[705] 0
x[706] 0
x[707] 1
x[708] 0
x[709] 1
x[710] 1
x[711] 1
x[712] 1
x[713] 1
x[714] 1
x[715] 0
x[716] 0
x[717] 0
x[718] 0
x[719] 0
x[720] 0
x[721] 0
x[722] 0
x[723] 1
x[724] 1
x[725] 0
x[726] 0
x[727] 1
x[728] 0
x[729] 1
x[730] 1
x[731] 0
x[732] 0
x[733] 0
x[734] 1
x[735] 0
x[736] 1
x[737] 0
x[738] 0
x[739] 0
x[740] 0
x[741] 0
x[742] 1
x[743] 0
x[744] 1
x[745] 0
x[746] 0
x[747] 0
x[748] 0
x[749] 0
x[750] 0
x[751] 0
x[752] 0
x[753] 0
x[754] 1
x[755] 0
x[756] 0
x[757] 1
x[758] 1
x[759] 0
x[760] 1
x[761] 0
x[762] 1
x[763] 1
x[764] 1
x[765] 1
x[766] 1
x[767] 0
x[768] 1
x[769] 0
x[770] 1
x[771] 0
x[772] 1
x[773] 0
x[774] 1
x[775] 1
x[776] 0
x[777] 1
x[778] 0
x[779] 0
x[780] 1
x[781] 1
x[782] 1
x[783] 1
x[784] 1
x[785] 1
x[786] 1
x[787] 1
x[788] 1
x[789] 1
x[790] 1
x[791] 1
x[792] 1
x[793] 1
x[794] 0
x[795] 1
x[796] 1
x[797] 0
x[798] 1
x[799] 0
x[800] 0
x[801] 0
x[802] 1
x[803] 0
x[804] 0
x[805] 1
x[806] 1
x[807] 1
x[808] 0
x[809] 1
x[810] 0
x[811] 0
x[812] 1
x[813] 1
x[814] 0
x[815] 1
x[816] 0
x[817] 1
x[818] 0
x[819] 1
x[820] 0
x[821] 0
x[822] 0
x[823] 1
x[824] 0
x[825] 0
x[826] 1
x[827] 0
x[828] 1
x[829] 1
x[830] 0
x[831] 1
x[832] 1
x[833] 1
x[834] 0
x[835] 0
x[836] 0
x[837] 0
x[838] 0
x[839] 0
x[840] 1
x[841] 1
x[842] 0
x[843] 0
x[844] 1
x[845] 1
x[846] 0
x[847] 1
x[848] 1
x[849] 0
x[850] 1
x[851] 0
x[852] 1
x[853] 1
x[854] 0
x[855] 1
x[856] 0
x[857] 1
x[858] 1
x[859] 0
x[860] 1
x[861] 1
x[862] 1
x[863] 0
x[864] 0
x[865] 0
x[866] 0
x[867] 0
x[868] 1
x[869] 0
x[870] 1
x[871] 0
x[872] 1
x[873] 0
x[874] 1
x[875] 1
x[876] 1
x[877] 1
x[878] 1
x[879] 0
x[880] 1
x[881] 0
x[882] 1
x[883] 1
x[884] 0
x[885] 1
x[886] 0
x[887] 0
x[888] 1
x[889] 1
x[890] 1
x[891] 1
x[892] 0
x[893] 1
x[894] 1
x[895] 0
x[896] 1
x[897] 1
x[898] 1
x[899] 0
x[900] 1
x[901] 1
x[902] 0
x[903] 0
x[904] 1
x[905] 0
x[906] 1
x[907] 0
x[908] 0
x[909] 1
x[910] 1
x[911] 1
x[912] 1
x[913] 0
x[914] 1
x[915] 0
x[916] 0
x[917] 1
x[918] 0
x[919] 1
x[920] 0
x[921] 1
x[922] 1
x[923] 1
x[924] 0
x[925] 1
x[926] 0
x[927] 0
x[928] 0
x[929] 1
x[930] 1
x[931] 0
x[932] 1
x[933] 0
x[934] 1
x[935] 0
x[936] 1
x[937] 1
x[938] 0
x[939] 0
x[940] 0
x[941] 1
x[942] 1
x[943] 0
x[944] 0
x[945] 1
x[946] 1
x[947] 1
x[948] 1
x[949] 1
x[950] 0
x[951] 1
x[952] 1
x[953] 1
x[954] 1
x[955] 0
x[956] 1
x[957] 0
x[958] 1
x[959] 1
x[960] 0
x[961] 0
x[962] 1
x[963] 1
x[964] 0
x[965] 1
x[966] 0
x[967] 0
x[968] 1
x[969] 1
x[970] 0
x[971] 1
x[972] 0
x[973] 1
x[974] 1
x[975] 0
x[976] 1
x[977] 1
x[978] 1
x[979] 1
x[980] 1
x[981] 1
x[982] 1
x[983] 0
x[984] 0
x[985] 0
x[986] 0
x[987] 1
x[988] 0
x[989] 1
x[990] 1
x[991] 1
x[992] 0
x[993] 0
x[994] 1
x[995] 1
x[996] 0
x[997] 1
x[998] 0
x[999] 0
